;; Mutation-Based Equivalence Benchmark
;; Source:     AutomatArk / instance11783.smt2
;; Mutations:  range_shrink_hi
;; Status:     sat
;;
;; Original regex vs mutated regex
;; Equivalence check: unsat ⟺ L(R1) = L(R2)

(set-info :smt-lib-version 2.6)
(set-info :category "mutation")
(set-info :status sat)
(set-logic QF_S)

(declare-const x String)

;; R1: original
;; R2: mutated (range_shrink_hi)
(assert
  (str.in_re x
    (re.union (re.inter (re.++ (re.union (re.++ (re.union (str.to_re "19") (str.to_re "20")) (re.union (re.++ (re.union (str.to_re "0") (str.to_re "2") (str.to_re "4") (str.to_re "6") (str.to_re "8")) (re.union (str.to_re "0") (str.to_re "4") (str.to_re "8"))) (re.++ (re.union (str.to_re "1") (str.to_re "3") (str.to_re "5") (str.to_re "7") (str.to_re "9")) (re.union (str.to_re "2") (str.to_re "6")))) re.allchar (str.to_re "02") re.allchar (str.to_re "29")) (re.++ (re.union (re.++ (str.to_re "20") (re.range "0" "9") (re.range "0" "9")) (re.++ (str.to_re "19") (re.range "0" "9") (re.range "0" "9"))) re.allchar (re.union (re.++ (re.union (re.++ (str.to_re "0") (re.range "1" "9")) (re.++ (str.to_re "1") (re.range "0" "2"))) re.allchar (re.union (re.++ (str.to_re "0") (re.range "1" "9")) (re.++ (str.to_re "1") (re.range "0" "9")) (re.++ (str.to_re "2") (re.range "0" "8")))) (re.++ (re.union (re.++ (str.to_re "0") (re.union (str.to_re "1") (str.to_re "3") (str.to_re "5") (str.to_re "7") (str.to_re "8"))) (re.++ (str.to_re "1") (re.union (str.to_re "0") (str.to_re "2")))) re.allchar (str.to_re "31")) (re.++ (re.union (re.++ (str.to_re "0") (re.union (str.to_re "1") (str.to_re ",") (re.range "3" "9"))) (re.++ (str.to_re "1") (re.range "0" "2"))) re.allchar (re.union (str.to_re "29") (str.to_re "30")))))) (str.to_re "\u{a}")) (re.comp (re.++ (re.union (re.++ (re.union (str.to_re "19") (str.to_re "20")) (re.union (re.++ (re.union (str.to_re "0") (str.to_re "2") (str.to_re "4") (str.to_re "6") (str.to_re "8")) (re.union (str.to_re "0") (str.to_re "4") (str.to_re "8"))) (re.++ (re.union (str.to_re "1") (str.to_re "3") (str.to_re "5") (str.to_re "7") (str.to_re "9")) (re.union (str.to_re "2") (str.to_re "6")))) re.allchar (str.to_re "02") re.allchar (str.to_re "29")) (re.++ (re.union (re.++ (str.to_re "20") (re.range "0" "9") (re.range "0" "9")) (re.++ (str.to_re "19") (re.range "0" "9") (re.range "0" "9"))) re.allchar (re.union (re.++ (re.union (re.++ (str.to_re "0") (re.range "1" "9")) (re.++ (str.to_re "1") (re.range "0" "2"))) re.allchar (re.union (re.++ (str.to_re "0") (re.range "1" "9")) (re.++ (str.to_re "1") (re.range "0" "9")) (re.++ (str.to_re "2") (re.range "0" "8")))) (re.++ (re.union (re.++ (str.to_re "0") (re.union (str.to_re "1") (str.to_re "3") (str.to_re "5") (str.to_re "7") (str.to_re "8"))) (re.++ (str.to_re "1") (re.union (str.to_re "0") (str.to_re "2")))) re.allchar (str.to_re "31")) (re.++ (re.union (re.++ (str.to_re "0") (re.union (str.to_re "1") (str.to_re ",") (re.range "3" "8"))) (re.++ (str.to_re "1") (re.range "0" "2"))) re.allchar (re.union (str.to_re "29") (str.to_re "30")))))) (str.to_re "\u{a}")))) (re.inter (re.comp (re.++ (re.union (re.++ (re.union (str.to_re "19") (str.to_re "20")) (re.union (re.++ (re.union (str.to_re "0") (str.to_re "2") (str.to_re "4") (str.to_re "6") (str.to_re "8")) (re.union (str.to_re "0") (str.to_re "4") (str.to_re "8"))) (re.++ (re.union (str.to_re "1") (str.to_re "3") (str.to_re "5") (str.to_re "7") (str.to_re "9")) (re.union (str.to_re "2") (str.to_re "6")))) re.allchar (str.to_re "02") re.allchar (str.to_re "29")) (re.++ (re.union (re.++ (str.to_re "20") (re.range "0" "9") (re.range "0" "9")) (re.++ (str.to_re "19") (re.range "0" "9") (re.range "0" "9"))) re.allchar (re.union (re.++ (re.union (re.++ (str.to_re "0") (re.range "1" "9")) (re.++ (str.to_re "1") (re.range "0" "2"))) re.allchar (re.union (re.++ (str.to_re "0") (re.range "1" "9")) (re.++ (str.to_re "1") (re.range "0" "9")) (re.++ (str.to_re "2") (re.range "0" "8")))) (re.++ (re.union (re.++ (str.to_re "0") (re.union (str.to_re "1") (str.to_re "3") (str.to_re "5") (str.to_re "7") (str.to_re "8"))) (re.++ (str.to_re "1") (re.union (str.to_re "0") (str.to_re "2")))) re.allchar (str.to_re "31")) (re.++ (re.union (re.++ (str.to_re "0") (re.union (str.to_re "1") (str.to_re ",") (re.range "3" "9"))) (re.++ (str.to_re "1") (re.range "0" "2"))) re.allchar (re.union (str.to_re "29") (str.to_re "30")))))) (str.to_re "\u{a}"))) (re.++ (re.union (re.++ (re.union (str.to_re "19") (str.to_re "20")) (re.union (re.++ (re.union (str.to_re "0") (str.to_re "2") (str.to_re "4") (str.to_re "6") (str.to_re "8")) (re.union (str.to_re "0") (str.to_re "4") (str.to_re "8"))) (re.++ (re.union (str.to_re "1") (str.to_re "3") (str.to_re "5") (str.to_re "7") (str.to_re "9")) (re.union (str.to_re "2") (str.to_re "6")))) re.allchar (str.to_re "02") re.allchar (str.to_re "29")) (re.++ (re.union (re.++ (str.to_re "20") (re.range "0" "9") (re.range "0" "9")) (re.++ (str.to_re "19") (re.range "0" "9") (re.range "0" "9"))) re.allchar (re.union (re.++ (re.union (re.++ (str.to_re "0") (re.range "1" "9")) (re.++ (str.to_re "1") (re.range "0" "2"))) re.allchar (re.union (re.++ (str.to_re "0") (re.range "1" "9")) (re.++ (str.to_re "1") (re.range "0" "9")) (re.++ (str.to_re "2") (re.range "0" "8")))) (re.++ (re.union (re.++ (str.to_re "0") (re.union (str.to_re "1") (str.to_re "3") (str.to_re "5") (str.to_re "7") (str.to_re "8"))) (re.++ (str.to_re "1") (re.union (str.to_re "0") (str.to_re "2")))) re.allchar (str.to_re "31")) (re.++ (re.union (re.++ (str.to_re "0") (re.union (str.to_re "1") (str.to_re ",") (re.range "3" "8"))) (re.++ (str.to_re "1") (re.range "0" "2"))) re.allchar (re.union (str.to_re "29") (str.to_re "30")))))) (str.to_re "\u{a}"))))))

(check-sat)
(exit)
